(set-logic QF_NRA)
(set-info :source |Benchmarks generated from hycomp (https://es-static.fbk.eu/tools/hycomp/). BMC instances of non-linear hybrid automata taken from: Alessandro Cimatti, Sergio Mover, Stefano Tonetta, A quantifier-free SMT encoding of non-linear hybrid automata, FMCAD 2012 and Alessandro Cimatti, Sergio Mover, Stefano Tonetta, Quantier-free encoding of invariants for Hybrid Systems, Formal Methods in System Design. This instance solves a BMC problem of depth 3 and uses the quantifier free encoding encoding. Contacts: Sergio Mover (mover@fbk.eu), Stefano Tonetta (tonettas@fbk.eu), Alessandro Cimatti (cimatti@fbk.eu).|)
(set-info :smt-lib-version 2.0)
(set-info :category "industrial")
(set-info :status unsat)
;; MathSAT API call trace
;; generated on Mon Mar 19 10:42:08 2012
(declare-fun b.EVENT.0__AT2 () Bool)
(declare-fun b.delta__AT1 () Real)
(declare-fun b.y__AT2 () Real)
(declare-fun b.EVENT.1__AT2 () Bool)
(declare-fun b.EVENT.0__AT1 () Bool)
(declare-fun b.EVENT.1__AT0 () Bool)
(declare-fun b.EVENT.1__AT1 () Bool)
(declare-fun b.EVENT.0__AT0 () Bool)
(declare-fun b.time__AT1 () Real)
(declare-fun b.speed_y__AT1 () Real)
(declare-fun b.time__AT0 () Real)
(declare-fun b.event_is_timed__AT3 () Bool)
(declare-fun b.y__AT0 () Real)
(declare-fun b.speed_y__AT2 () Real)
(declare-fun b.y__AT3 () Real)
(declare-fun b.counter.0__AT0 () Bool)
(declare-fun b.counter.2__AT2 () Bool)
(declare-fun b.counter.2__AT0 () Bool)
(declare-fun b.counter.1__AT0 () Bool)
(declare-fun b.counter.0__AT3 () Bool)
(declare-fun b.counter.3__AT2 () Bool)
(declare-fun b.counter.1__AT1 () Bool)
(declare-fun b.time__AT3 () Real)
(declare-fun b.counter.1__AT3 () Bool)
(declare-fun b.counter.2__AT1 () Bool)
(declare-fun b.delta__AT3 () Real)
(declare-fun b.counter.2__AT3 () Bool)
(declare-fun b.EVENT.0__AT3 () Bool)
(declare-fun b.counter.3__AT3 () Bool)
(declare-fun speed_loss__AT0 () Real)
(declare-fun b.EVENT.1__AT3 () Bool)
(declare-fun b.speed_y__AT0 () Real)
(declare-fun b.event_is_timed__AT1 () Bool)
(declare-fun b.speed_y__AT3 () Real)
(declare-fun b.counter.0__AT2 () Bool)
(declare-fun b.event_is_timed__AT2 () Bool)
(declare-fun b.event_is_timed__AT0 () Bool)
(declare-fun b.counter.1__AT2 () Bool)
(declare-fun b.counter.3__AT1 () Bool)
(declare-fun b.delta__AT0 () Real)
(declare-fun b.y__AT1 () Real)
(declare-fun b.time__AT2 () Real)
(declare-fun b.counter.0__AT1 () Bool)
(declare-fun b.counter.3__AT0 () Bool)
(declare-fun b.delta__AT2 () Real)
(assert (let ((.def_568 (* (- 49.0) b.delta__AT3)))
(let ((.def_569 (* 5.0 b.speed_y__AT3)))
(let ((.def_571 (+ .def_569 .def_568)))
(let ((.def_575 (<= .def_571 0.0 )))
(let ((.def_574 (<= b.speed_y__AT3 0.0 )))
(let ((.def_576 (and .def_574 .def_575)))
(let ((.def_572 (<= 0.0 .def_571)))
(let ((.def_567 (<= 0.0 b.speed_y__AT3)))
(let ((.def_573 (and .def_567 .def_572)))
(let ((.def_577 (or .def_573 .def_576)))
(let ((.def_559 (* b.speed_y__AT3 b.delta__AT3)))
(let ((.def_560 (* 10.0 .def_559)))
(let ((.def_557 (* b.delta__AT3 b.delta__AT3)))
(let ((.def_558 (* (- 49.0) .def_557)))
(let ((.def_561 (+ .def_558 .def_560)))
(let ((.def_562 (* 10.0 b.y__AT3)))
(let ((.def_564 (+ .def_562 .def_561)))
(let ((.def_565 (<= 0.0 .def_564)))
(let ((.def_548 (<= 0.0 b.y__AT3)))
(let ((.def_566 (and .def_548 .def_565)))
(let ((.def_578 (and .def_566 .def_577)))
(let ((.def_56 (<= speed_loss__AT0 (/ 1 2))))
(let ((.def_53 (<= (/ 1 10) speed_loss__AT0)))
(let ((.def_57 (and .def_53 .def_56)))
(let ((.def_579 (and .def_57 .def_578)))
(let ((.def_278 (not b.counter.0__AT2)))
(let ((.def_266 (not b.counter.1__AT2)))
(let ((.def_552 (and .def_266 .def_278)))
(let ((.def_273 (not b.counter.2__AT2)))
(let ((.def_553 (and .def_273 .def_552)))
(let ((.def_549 (and .def_57 .def_548)))
(let ((.def_545 (not b.EVENT.0__AT3)))
(let ((.def_543 (not b.EVENT.1__AT3)))
(let ((.def_546 (or .def_543 .def_545)))
(let ((.def_6 (not b.counter.0__AT3)))
(let ((.def_4 (not b.counter.1__AT3)))
(let ((.def_536 (or .def_4 .def_6)))
(let ((.def_540 (or b.counter.3__AT3 .def_536)))
(let ((.def_537 (or b.counter.2__AT3 .def_536)))
(let ((.def_9 (not b.counter.2__AT3)))
(let ((.def_535 (or .def_6 .def_9)))
(let ((.def_538 (and .def_535 .def_537)))
(let ((.def_447 (not b.counter.3__AT3)))
(let ((.def_539 (or .def_447 .def_538)))
(let ((.def_541 (and .def_539 .def_540)))
(let ((.def_547 (and .def_541 .def_546)))
(let ((.def_550 (and .def_547 .def_549)))
(let ((.def_530 (<= 0.0 b.delta__AT2)))
(let ((.def_386 (not b.EVENT.0__AT2)))
(let ((.def_384 (not b.EVENT.1__AT2)))
(let ((.def_477 (and .def_384 .def_386)))
(let ((.def_481 (not .def_477)))
(let ((.def_531 (or .def_481 .def_530)))
(let ((.def_532 (or b.EVENT.1__AT2 .def_531)))
(let ((.def_469 (= b.counter.0__AT3 b.counter.0__AT2)))
(let ((.def_467 (= b.counter.1__AT3 b.counter.1__AT2)))
(let ((.def_465 (= b.counter.2__AT3 b.counter.2__AT2)))
(let ((.def_464 (= b.counter.3__AT2 b.counter.3__AT3)))
(let ((.def_466 (and .def_464 .def_465)))
(let ((.def_468 (and .def_466 .def_467)))
(let ((.def_470 (and .def_468 .def_469)))
(let ((.def_527 (or .def_470 .def_481)))
(let ((.def_528 (or b.EVENT.1__AT2 .def_527)))
(let ((.def_515 (* (- 10.0) b.y__AT3)))
(let ((.def_400 (* b.speed_y__AT2 b.delta__AT2)))
(let ((.def_401 (* 10.0 .def_400)))
(let ((.def_519 (+ .def_401 .def_515)))
(let ((.def_398 (* b.delta__AT2 b.delta__AT2)))
(let ((.def_399 (* (- 49.0) .def_398)))
(let ((.def_520 (+ .def_399 .def_519)))
(let ((.def_403 (* 10.0 b.y__AT2)))
(let ((.def_521 (+ .def_403 .def_520)))
(let ((.def_522 (= .def_521 0.0 )))
(let ((.def_511 (* (- 5.0) b.speed_y__AT3)))
(let ((.def_409 (* (- 49.0) b.delta__AT2)))
(let ((.def_512 (+ .def_409 .def_511)))
(let ((.def_410 (* 5.0 b.speed_y__AT2)))
(let ((.def_513 (+ .def_410 .def_512)))
(let ((.def_514 (= .def_513 0.0 )))
(let ((.def_523 (and .def_514 .def_522)))
(let ((.def_524 (or .def_481 .def_523)))
(let ((.def_475 (= b.y__AT2 b.y__AT3)))
(let ((.def_463 (= b.speed_y__AT2 b.speed_y__AT3)))
(let ((.def_508 (and .def_463 .def_475)))
(let ((.def_505 (= b.delta__AT2 0.0 )))
(let ((.def_506 (and .def_477 .def_505)))
(let ((.def_507 (not .def_506)))
(let ((.def_509 (or .def_507 .def_508)))
(let ((.def_510 (or b.EVENT.1__AT2 .def_509)))
(let ((.def_525 (and .def_510 .def_524)))
(let ((.def_487 (= b.time__AT2 b.time__AT3)))
(let ((.def_499 (and .def_475 .def_487)))
(let ((.def_500 (and .def_463 .def_499)))
(let ((.def_501 (and .def_470 .def_500)))
(let ((.def_502 (or .def_384 .def_501)))
(let ((.def_490 (* (- 1.0) b.time__AT3)))
(let ((.def_493 (+ b.delta__AT2 .def_490)))
(let ((.def_494 (+ b.time__AT2 .def_493)))
(let ((.def_495 (= .def_494 0.0 )))
(let ((.def_496 (or .def_481 .def_495)))
(let ((.def_497 (or b.EVENT.1__AT2 .def_496)))
(let ((.def_488 (or .def_477 .def_487)))
(let ((.def_489 (or b.EVENT.1__AT2 .def_488)))
(let ((.def_498 (and .def_489 .def_497)))
(let ((.def_503 (and .def_498 .def_502)))
(let ((.def_483 (= .def_481 b.event_is_timed__AT3)))
(let ((.def_480 (= b.event_is_timed__AT2 .def_477)))
(let ((.def_484 (and .def_480 .def_483)))
(let ((.def_471 (and .def_463 .def_470)))
(let ((.def_408 (<= 0.0 b.speed_y__AT2)))
(let ((.def_423 (not .def_408)))
(let ((.def_422 (= b.y__AT2 0.0 )))
(let ((.def_424 (and .def_422 .def_423)))
(let ((.def_472 (or .def_424 .def_471)))
(let ((.def_438 (or .def_6 b.counter.0__AT2)))
(let ((.def_437 (or b.counter.0__AT3 .def_278)))
(let ((.def_439 (and .def_437 .def_438)))
(let ((.def_440 (and .def_4 .def_439)))
(let ((.def_441 (or b.counter.1__AT2 .def_440)))
(let ((.def_436 (or b.counter.1__AT3 .def_266)))
(let ((.def_442 (and .def_436 .def_441)))
(let ((.def_455 (and .def_9 .def_442)))
(let ((.def_456 (or b.counter.2__AT2 .def_455)))
(let ((.def_450 (and .def_4 .def_278)))
(let ((.def_451 (or b.counter.1__AT2 .def_450)))
(let ((.def_452 (and .def_436 .def_451)))
(let ((.def_453 (and b.counter.2__AT3 .def_452)))
(let ((.def_454 (or .def_273 .def_453)))
(let ((.def_457 (and .def_454 .def_456)))
(let ((.def_458 (and b.counter.3__AT3 .def_457)))
(let ((.def_459 (or b.counter.3__AT2 .def_458)))
(let ((.def_443 (and b.counter.2__AT3 .def_442)))
(let ((.def_444 (or b.counter.2__AT2 .def_443)))
(let ((.def_432 (or b.counter.1__AT3 b.counter.1__AT2)))
(let ((.def_430 (and .def_4 b.counter.0__AT3)))
(let ((.def_431 (or .def_266 .def_430)))
(let ((.def_433 (and .def_431 .def_432)))
(let ((.def_434 (and .def_9 .def_433)))
(let ((.def_435 (or .def_273 .def_434)))
(let ((.def_445 (and .def_435 .def_444)))
(let ((.def_448 (and .def_445 .def_447)))
(let ((.def_288 (not b.counter.3__AT2)))
(let ((.def_449 (or .def_288 .def_448)))
(let ((.def_460 (and .def_449 .def_459)))
(let ((.def_426 (* (- 1.0) b.speed_y__AT2)))
(let ((.def_95 (* (- 1.0) speed_loss__AT0)))
(let ((.def_96 (+ 1.0 .def_95)))
(let ((.def_427 (* .def_96 .def_426)))
(let ((.def_429 (= .def_427 b.speed_y__AT3)))
(let ((.def_461 (and .def_429 .def_460)))
(let ((.def_425 (not .def_424)))
(let ((.def_462 (or .def_425 .def_461)))
(let ((.def_473 (and .def_462 .def_472)))
(let ((.def_476 (and .def_473 .def_475)))
(let ((.def_478 (or .def_476 .def_477)))
(let ((.def_479 (or b.EVENT.1__AT2 .def_478)))
(let ((.def_485 (and .def_479 .def_484)))
(let ((.def_504 (and .def_485 .def_503)))
(let ((.def_526 (and .def_504 .def_525)))
(let ((.def_529 (and .def_526 .def_528)))
(let ((.def_533 (and .def_529 .def_532)))
(let ((.def_534 (and .def_384 .def_533)))
(let ((.def_551 (and .def_534 .def_550)))
(let ((.def_554 (and .def_551 .def_553)))
(let ((.def_412 (+ .def_410 .def_409)))
(let ((.def_416 (<= .def_412 0.0 )))
(let ((.def_415 (<= b.speed_y__AT2 0.0 )))
(let ((.def_417 (and .def_415 .def_416)))
(let ((.def_413 (<= 0.0 .def_412)))
(let ((.def_414 (and .def_408 .def_413)))
(let ((.def_418 (or .def_414 .def_417)))
(let ((.def_402 (+ .def_399 .def_401)))
(let ((.def_405 (+ .def_403 .def_402)))
(let ((.def_406 (<= 0.0 .def_405)))
(let ((.def_389 (<= 0.0 b.y__AT2)))
(let ((.def_407 (and .def_389 .def_406)))
(let ((.def_419 (and .def_407 .def_418)))
(let ((.def_420 (and .def_57 .def_419)))
(let ((.def_114 (not b.counter.0__AT1)))
(let ((.def_102 (not b.counter.1__AT1)))
(let ((.def_393 (and .def_102 .def_114)))
(let ((.def_109 (not b.counter.2__AT1)))
(let ((.def_394 (and .def_109 .def_393)))
(let ((.def_390 (and .def_57 .def_389)))
(let ((.def_387 (or .def_384 .def_386)))
(let ((.def_377 (or .def_266 .def_278)))
(let ((.def_381 (or b.counter.3__AT2 .def_377)))
(let ((.def_378 (or b.counter.2__AT2 .def_377)))
(let ((.def_376 (or .def_273 .def_278)))
(let ((.def_379 (and .def_376 .def_378)))
(let ((.def_380 (or .def_288 .def_379)))
(let ((.def_382 (and .def_380 .def_381)))
(let ((.def_388 (and .def_382 .def_387)))
(let ((.def_391 (and .def_388 .def_390)))
(let ((.def_371 (<= 0.0 b.delta__AT1)))
(let ((.def_223 (not b.EVENT.0__AT1)))
(let ((.def_221 (not b.EVENT.1__AT1)))
(let ((.def_318 (and .def_221 .def_223)))
(let ((.def_322 (not .def_318)))
(let ((.def_372 (or .def_322 .def_371)))
(let ((.def_373 (or b.EVENT.1__AT1 .def_372)))
(let ((.def_310 (= b.counter.0__AT1 b.counter.0__AT2)))
(let ((.def_308 (= b.counter.1__AT1 b.counter.1__AT2)))
(let ((.def_306 (= b.counter.2__AT1 b.counter.2__AT2)))
(let ((.def_305 (= b.counter.3__AT1 b.counter.3__AT2)))
(let ((.def_307 (and .def_305 .def_306)))
(let ((.def_309 (and .def_307 .def_308)))
(let ((.def_311 (and .def_309 .def_310)))
(let ((.def_368 (or .def_311 .def_322)))
(let ((.def_369 (or b.EVENT.1__AT1 .def_368)))
(let ((.def_356 (* (- 10.0) b.y__AT2)))
(let ((.def_235 (* b.speed_y__AT1 b.delta__AT1)))
(let ((.def_236 (* 10.0 .def_235)))
(let ((.def_360 (+ .def_236 .def_356)))
(let ((.def_233 (* b.delta__AT1 b.delta__AT1)))
(let ((.def_234 (* (- 49.0) .def_233)))
(let ((.def_361 (+ .def_234 .def_360)))
(let ((.def_238 (* 10.0 b.y__AT1)))
(let ((.def_362 (+ .def_238 .def_361)))
(let ((.def_363 (= .def_362 0.0 )))
(let ((.def_352 (* (- 5.0) b.speed_y__AT2)))
(let ((.def_244 (* (- 49.0) b.delta__AT1)))
(let ((.def_353 (+ .def_244 .def_352)))
(let ((.def_245 (* 5.0 b.speed_y__AT1)))
(let ((.def_354 (+ .def_245 .def_353)))
(let ((.def_355 (= .def_354 0.0 )))
(let ((.def_364 (and .def_355 .def_363)))
(let ((.def_365 (or .def_322 .def_364)))
(let ((.def_316 (= b.y__AT1 b.y__AT2)))
(let ((.def_304 (= b.speed_y__AT1 b.speed_y__AT2)))
(let ((.def_349 (and .def_304 .def_316)))
(let ((.def_346 (= b.delta__AT1 0.0 )))
(let ((.def_347 (and .def_318 .def_346)))
(let ((.def_348 (not .def_347)))
(let ((.def_350 (or .def_348 .def_349)))
(let ((.def_351 (or b.EVENT.1__AT1 .def_350)))
(let ((.def_366 (and .def_351 .def_365)))
(let ((.def_328 (= b.time__AT1 b.time__AT2)))
(let ((.def_340 (and .def_316 .def_328)))
(let ((.def_341 (and .def_304 .def_340)))
(let ((.def_342 (and .def_311 .def_341)))
(let ((.def_343 (or .def_221 .def_342)))
(let ((.def_331 (* (- 1.0) b.time__AT2)))
(let ((.def_334 (+ b.delta__AT1 .def_331)))
(let ((.def_335 (+ b.time__AT1 .def_334)))
(let ((.def_336 (= .def_335 0.0 )))
(let ((.def_337 (or .def_322 .def_336)))
(let ((.def_338 (or b.EVENT.1__AT1 .def_337)))
(let ((.def_329 (or .def_318 .def_328)))
(let ((.def_330 (or b.EVENT.1__AT1 .def_329)))
(let ((.def_339 (and .def_330 .def_338)))
(let ((.def_344 (and .def_339 .def_343)))
(let ((.def_324 (= .def_322 b.event_is_timed__AT2)))
(let ((.def_321 (= b.event_is_timed__AT1 .def_318)))
(let ((.def_325 (and .def_321 .def_324)))
(let ((.def_312 (and .def_304 .def_311)))
(let ((.def_243 (<= 0.0 b.speed_y__AT1)))
(let ((.def_258 (not .def_243)))
(let ((.def_257 (= b.y__AT1 0.0 )))
(let ((.def_259 (and .def_257 .def_258)))
(let ((.def_313 (or .def_259 .def_312)))
(let ((.def_279 (or b.counter.0__AT1 .def_278)))
(let ((.def_277 (or .def_114 b.counter.0__AT2)))
(let ((.def_280 (and .def_277 .def_279)))
(let ((.def_281 (and .def_266 .def_280)))
(let ((.def_282 (or b.counter.1__AT1 .def_281)))
(let ((.def_276 (or .def_102 b.counter.1__AT2)))
(let ((.def_283 (and .def_276 .def_282)))
(let ((.def_296 (and .def_273 .def_283)))
(let ((.def_297 (or b.counter.2__AT1 .def_296)))
(let ((.def_291 (and .def_114 .def_266)))
(let ((.def_292 (or b.counter.1__AT1 .def_291)))
(let ((.def_293 (and .def_276 .def_292)))
(let ((.def_294 (and b.counter.2__AT2 .def_293)))
(let ((.def_295 (or .def_109 .def_294)))
(let ((.def_298 (and .def_295 .def_297)))
(let ((.def_299 (and b.counter.3__AT2 .def_298)))
(let ((.def_300 (or b.counter.3__AT1 .def_299)))
(let ((.def_284 (and b.counter.2__AT2 .def_283)))
(let ((.def_285 (or b.counter.2__AT1 .def_284)))
(let ((.def_270 (or b.counter.1__AT1 b.counter.1__AT2)))
(let ((.def_268 (and .def_266 b.counter.0__AT2)))
(let ((.def_269 (or .def_102 .def_268)))
(let ((.def_271 (and .def_269 .def_270)))
(let ((.def_274 (and .def_271 .def_273)))
(let ((.def_275 (or .def_109 .def_274)))
(let ((.def_286 (and .def_275 .def_285)))
(let ((.def_289 (and .def_286 .def_288)))
(let ((.def_124 (not b.counter.3__AT1)))
(let ((.def_290 (or .def_124 .def_289)))
(let ((.def_301 (and .def_290 .def_300)))
(let ((.def_261 (* (- 1.0) b.speed_y__AT1)))
(let ((.def_262 (* .def_96 .def_261)))
(let ((.def_264 (= .def_262 b.speed_y__AT2)))
(let ((.def_302 (and .def_264 .def_301)))
(let ((.def_260 (not .def_259)))
(let ((.def_303 (or .def_260 .def_302)))
(let ((.def_314 (and .def_303 .def_313)))
(let ((.def_317 (and .def_314 .def_316)))
(let ((.def_319 (or .def_317 .def_318)))
(let ((.def_320 (or b.EVENT.1__AT1 .def_319)))
(let ((.def_326 (and .def_320 .def_325)))
(let ((.def_345 (and .def_326 .def_344)))
(let ((.def_367 (and .def_345 .def_366)))
(let ((.def_370 (and .def_367 .def_369)))
(let ((.def_374 (and .def_370 .def_373)))
(let ((.def_375 (and .def_221 .def_374)))
(let ((.def_392 (and .def_375 .def_391)))
(let ((.def_395 (and .def_392 .def_394)))
(let ((.def_247 (+ .def_245 .def_244)))
(let ((.def_251 (<= .def_247 0.0 )))
(let ((.def_250 (<= b.speed_y__AT1 0.0 )))
(let ((.def_252 (and .def_250 .def_251)))
(let ((.def_248 (<= 0.0 .def_247)))
(let ((.def_249 (and .def_243 .def_248)))
(let ((.def_253 (or .def_249 .def_252)))
(let ((.def_237 (+ .def_234 .def_236)))
(let ((.def_240 (+ .def_238 .def_237)))
(let ((.def_241 (<= 0.0 .def_240)))
(let ((.def_226 (<= 0.0 b.y__AT1)))
(let ((.def_242 (and .def_226 .def_241)))
(let ((.def_254 (and .def_242 .def_253)))
(let ((.def_255 (and .def_57 .def_254)))
(let ((.def_227 (and .def_57 .def_226)))
(let ((.def_224 (or .def_221 .def_223)))
(let ((.def_214 (or .def_102 .def_114)))
(let ((.def_218 (or b.counter.3__AT1 .def_214)))
(let ((.def_215 (or b.counter.2__AT1 .def_214)))
(let ((.def_213 (or .def_109 .def_114)))
(let ((.def_216 (and .def_213 .def_215)))
(let ((.def_217 (or .def_124 .def_216)))
(let ((.def_219 (and .def_217 .def_218)))
(let ((.def_225 (and .def_219 .def_224)))
(let ((.def_228 (and .def_225 .def_227)))
(let ((.def_208 (<= 0.0 b.delta__AT0)))
(let ((.def_46 (not b.EVENT.0__AT0)))
(let ((.def_44 (not b.EVENT.1__AT0)))
(let ((.def_154 (and .def_44 .def_46)))
(let ((.def_158 (not .def_154)))
(let ((.def_209 (or .def_158 .def_208)))
(let ((.def_210 (or b.EVENT.1__AT0 .def_209)))
(let ((.def_146 (= b.counter.0__AT0 b.counter.0__AT1)))
(let ((.def_144 (= b.counter.1__AT0 b.counter.1__AT1)))
(let ((.def_142 (= b.counter.2__AT0 b.counter.2__AT1)))
(let ((.def_141 (= b.counter.3__AT0 b.counter.3__AT1)))
(let ((.def_143 (and .def_141 .def_142)))
(let ((.def_145 (and .def_143 .def_144)))
(let ((.def_147 (and .def_145 .def_146)))
(let ((.def_205 (or .def_147 .def_158)))
(let ((.def_206 (or b.EVENT.1__AT0 .def_205)))
(let ((.def_194 (* (- 10.0) b.y__AT1)))
(let ((.def_67 (* b.speed_y__AT0 b.delta__AT0)))
(let ((.def_68 (* 10.0 .def_67)))
(let ((.def_197 (+ .def_68 .def_194)))
(let ((.def_63 (* b.delta__AT0 b.delta__AT0)))
(let ((.def_66 (* (- 49.0) .def_63)))
(let ((.def_198 (+ .def_66 .def_197)))
(let ((.def_70 (* 10.0 b.y__AT0)))
(let ((.def_199 (+ .def_70 .def_198)))
(let ((.def_200 (= .def_199 0.0 )))
(let ((.def_189 (* (- 5.0) b.speed_y__AT1)))
(let ((.def_76 (* (- 49.0) b.delta__AT0)))
(let ((.def_190 (+ .def_76 .def_189)))
(let ((.def_78 (* 5.0 b.speed_y__AT0)))
(let ((.def_191 (+ .def_78 .def_190)))
(let ((.def_192 (= .def_191 0.0 )))
(let ((.def_201 (and .def_192 .def_200)))
(let ((.def_202 (or .def_158 .def_201)))
(let ((.def_152 (= b.y__AT0 b.y__AT1)))
(let ((.def_140 (= b.speed_y__AT0 b.speed_y__AT1)))
(let ((.def_185 (and .def_140 .def_152)))
(let ((.def_182 (= b.delta__AT0 0.0 )))
(let ((.def_183 (and .def_154 .def_182)))
(let ((.def_184 (not .def_183)))
(let ((.def_186 (or .def_184 .def_185)))
(let ((.def_187 (or b.EVENT.1__AT0 .def_186)))
(let ((.def_203 (and .def_187 .def_202)))
(let ((.def_164 (= b.time__AT0 b.time__AT1)))
(let ((.def_176 (and .def_152 .def_164)))
(let ((.def_177 (and .def_140 .def_176)))
(let ((.def_178 (and .def_147 .def_177)))
(let ((.def_179 (or .def_44 .def_178)))
(let ((.def_167 (* (- 1.0) b.time__AT1)))
(let ((.def_170 (+ b.delta__AT0 .def_167)))
(let ((.def_171 (+ b.time__AT0 .def_170)))
(let ((.def_172 (= .def_171 0.0 )))
(let ((.def_173 (or .def_158 .def_172)))
(let ((.def_174 (or b.EVENT.1__AT0 .def_173)))
(let ((.def_165 (or .def_154 .def_164)))
(let ((.def_166 (or b.EVENT.1__AT0 .def_165)))
(let ((.def_175 (and .def_166 .def_174)))
(let ((.def_180 (and .def_175 .def_179)))
(let ((.def_160 (= .def_158 b.event_is_timed__AT1)))
(let ((.def_157 (= b.event_is_timed__AT0 .def_154)))
(let ((.def_161 (and .def_157 .def_160)))
(let ((.def_148 (and .def_140 .def_147)))
(let ((.def_75 (<= 0.0 b.speed_y__AT0)))
(let ((.def_91 (not .def_75)))
(let ((.def_90 (= b.y__AT0 0.0 )))
(let ((.def_92 (and .def_90 .def_91)))
(let ((.def_149 (or .def_92 .def_148)))
(let ((.def_115 (or b.counter.0__AT0 .def_114)))
(let ((.def_27 (not b.counter.0__AT0)))
(let ((.def_113 (or .def_27 b.counter.0__AT1)))
(let ((.def_116 (and .def_113 .def_115)))
(let ((.def_117 (and .def_102 .def_116)))
(let ((.def_118 (or b.counter.1__AT0 .def_117)))
(let ((.def_25 (not b.counter.1__AT0)))
(let ((.def_112 (or .def_25 b.counter.1__AT1)))
(let ((.def_119 (and .def_112 .def_118)))
(let ((.def_132 (and .def_109 .def_119)))
(let ((.def_133 (or b.counter.2__AT0 .def_132)))
(let ((.def_127 (and .def_27 .def_102)))
(let ((.def_128 (or b.counter.1__AT0 .def_127)))
(let ((.def_129 (and .def_112 .def_128)))
(let ((.def_130 (and b.counter.2__AT1 .def_129)))
(let ((.def_30 (not b.counter.2__AT0)))
(let ((.def_131 (or .def_30 .def_130)))
(let ((.def_134 (and .def_131 .def_133)))
(let ((.def_135 (and b.counter.3__AT1 .def_134)))
(let ((.def_136 (or b.counter.3__AT0 .def_135)))
(let ((.def_120 (and b.counter.2__AT1 .def_119)))
(let ((.def_121 (or b.counter.2__AT0 .def_120)))
(let ((.def_106 (or b.counter.1__AT0 b.counter.1__AT1)))
(let ((.def_104 (and .def_102 b.counter.0__AT1)))
(let ((.def_105 (or .def_25 .def_104)))
(let ((.def_107 (and .def_105 .def_106)))
(let ((.def_110 (and .def_107 .def_109)))
(let ((.def_111 (or .def_30 .def_110)))
(let ((.def_122 (and .def_111 .def_121)))
(let ((.def_125 (and .def_122 .def_124)))
(let ((.def_33 (not b.counter.3__AT0)))
(let ((.def_126 (or .def_33 .def_125)))
(let ((.def_137 (and .def_126 .def_136)))
(let ((.def_97 (* (- 1.0) b.speed_y__AT0)))
(let ((.def_98 (* .def_96 .def_97)))
(let ((.def_100 (= .def_98 b.speed_y__AT1)))
(let ((.def_138 (and .def_100 .def_137)))
(let ((.def_93 (not .def_92)))
(let ((.def_139 (or .def_93 .def_138)))
(let ((.def_150 (and .def_139 .def_149)))
(let ((.def_153 (and .def_150 .def_152)))
(let ((.def_155 (or .def_153 .def_154)))
(let ((.def_156 (or b.EVENT.1__AT0 .def_155)))
(let ((.def_162 (and .def_156 .def_161)))
(let ((.def_181 (and .def_162 .def_180)))
(let ((.def_204 (and .def_181 .def_203)))
(let ((.def_207 (and .def_204 .def_206)))
(let ((.def_211 (and .def_207 .def_210)))
(let ((.def_212 (and .def_44 .def_211)))
(let ((.def_229 (and .def_212 .def_228)))
(let ((.def_28 (and .def_25 .def_27)))
(let ((.def_31 (and .def_28 .def_30)))
(let ((.def_230 (and .def_31 .def_229)))
(let ((.def_80 (+ .def_78 .def_76)))
(let ((.def_84 (<= .def_80 0.0 )))
(let ((.def_83 (<= b.speed_y__AT0 0.0 )))
(let ((.def_85 (and .def_83 .def_84)))
(let ((.def_81 (<= 0.0 .def_80)))
(let ((.def_82 (and .def_75 .def_81)))
(let ((.def_86 (or .def_82 .def_85)))
(let ((.def_69 (+ .def_66 .def_68)))
(let ((.def_72 (+ .def_70 .def_69)))
(let ((.def_73 (<= 0.0 .def_72)))
(let ((.def_49 (<= 0.0 b.y__AT0)))
(let ((.def_74 (and .def_49 .def_73)))
(let ((.def_87 (and .def_74 .def_86)))
(let ((.def_88 (and .def_57 .def_87)))
(let ((.def_58 (and .def_49 .def_57)))
(let ((.def_47 (or .def_44 .def_46)))
(let ((.def_37 (or .def_25 .def_27)))
(let ((.def_41 (or b.counter.3__AT0 .def_37)))
(let ((.def_38 (or b.counter.2__AT0 .def_37)))
(let ((.def_36 (or .def_27 .def_30)))
(let ((.def_39 (and .def_36 .def_38)))
(let ((.def_40 (or .def_33 .def_39)))
(let ((.def_42 (and .def_40 .def_41)))
(let ((.def_48 (and .def_42 .def_47)))
(let ((.def_59 (and .def_48 .def_58)))
(let ((.def_34 (and .def_31 .def_33)))
(let ((.def_22 (= b.speed_y__AT0 0.0 )))
(let ((.def_19 (= b.y__AT0 10.0 )))
(let ((.def_14 (= b.time__AT0 0.0 )))
(let ((.def_16 (and .def_14 b.event_is_timed__AT0)))
(let ((.def_20 (and .def_16 .def_19)))
(let ((.def_23 (and .def_20 .def_22)))
(let ((.def_35 (and .def_23 .def_34)))
(let ((.def_60 (and .def_35 .def_59)))
(let ((.def_7 (and .def_4 .def_6)))
(let ((.def_10 (and .def_7 .def_9)))
(let ((.def_11 (not .def_10)))
(let ((.def_61 (and .def_11 .def_60)))
(let ((.def_89 (and .def_61 .def_88)))
(let ((.def_231 (and .def_89 .def_230)))
(let ((.def_256 (and .def_231 .def_255)))
(let ((.def_396 (and .def_256 .def_395)))
(let ((.def_421 (and .def_396 .def_420)))
(let ((.def_555 (and .def_421 .def_554)))
(let ((.def_580 (and .def_555 .def_579)))
.def_580))))))))))))))))))))))))))))))))))))))))))))))))))))))))))))))))))))))))))))))))))))))))))))))))))))))))))))))))))))))))))))))))))))))))))))))))))))))))))))))))))))))))))))))))))))))))))))))))))))))))))))))))))))))))))))))))))))))))))))))))))))))))))))))))))))))))))))))))))))))))))))))))))))))))))))))))))))))))))))))))))))))))))))))))))))))))))))))))))))))))))))))))))))))))))))))))))))))))))))))))))))))))))))))))))))))))))))))))))))))))))))))))))))))))))))))))))))))))))))))))))))))))))))))))))))
(check-sat)
(exit)
